files/upTests/_zothers/mutiMatixMatixTupleComplex3Simpler2/0001.eprime.solution
language ESSENCE' 1.0
$ minion Nodes: 1
$ minion TotalTime: 0.001672
$ Savile Row TotalTime: 0.267
letting pain_tuple1 be [1, 1]
letting pain_tuple2_tuple1 be [[12, 12], 
[12, 12]]
letting pain_tuple2_tuple2_tuple2 be [[[28, 31], 
[28, 32]], 
[[28, 31], 
[28, 33]]]
letting pain_tuple2_tuple2_tuple1 be [[[55, 99], 
[55, 99]], 
[[55, 99], 
[55, 99]]]
